# f.javier.heredia(at)upc.edu
# albert.sola.vilalta(at)upc.edu
#set T := 1..24;

#nodal buses
set V := 1 2 3 4 5 6 7 8 9 10 11 12 13 14;

# generators set
set G := ALL1 NRC1 NRC2 NRC3 ROB1 ROB2 SBO1 SBO2;

#set of demands
set D := D03 D04 D05 D08 D09 D10 D11 D12 D13 D14;

#set of Gn's
set G_n[1] := ROB1 ROB2;
set G_n[2] := NRC1 NRC2 NRC3;
set G_n[3] := SBO1 SBO2;
set G_n[4] := ;
set G_n[5] := ;
set G_n[6] := ALL1;
set G_n[7] := ;
set G_n[8] := ;
set G_n[9] := ;
set G_n[10] := ;
set G_n[11] := ;
set G_n[12] := ;
set G_n[13] := ;
set G_n[14] := ;

#set of Dn's
set D_n[1] := ;
set D_n[2] := ;
set D_n[3] := D03;
set D_n[4] := D04;
set D_n[5] := D05;
set D_n[6] := ;
set D_n[7] := ;
set D_n[8] := D08;
set D_n[9] := D09;
set D_n[10] := D10;
set D_n[11] := D11;
set D_n[12] := D12;
set D_n[13] := D13;
set D_n[14] := D14;


# Lines: provide as ordered pairs (i,j).
set L := 
(1,2)
(1,5)
(2,3)
(2,4)
(2,5)
(3,4)
(4,5)
(4,7)
(4,9)
(5,6)
(6,11)
(6,12)
(6,13)
(7,8)
(7,9)
(9,10)
(9,14)
(10,11)
(12,13)
(13,14);

param : Cq      Cl       Cb         Csud     Pgmin     Pgmax     Ru        Rd        Pg0        U0 :=
ALL1    0.02    82.62    3091.91    13396.07 150.00    350.00    150.00    150.00    150.00     1
NRC1    0.08    232.22   3294.08     6135.27  60.00    166.40    70.00     60.00     60.00      1
NRC2    0.18    57.75    7770.12    13454.04 160.00    364.10    160.00    160.00    160.00     1
NRC3    0.02    82.78    4201.18    21141.21  90.00     350.00    90.00     90.00     90.00     1
ROB1    0.04    84.54    1879.79    14125.33 160.00    370.70    160.00    160.00    160.00     1
ROB2    0.02    83.27    9439.65     3246.60  30.00    70.00     40.00     30.00     30.00      1
SBO1    0.01    137.92   4884.27     7018.26 110.00    313.60    115.00    110.00    110.00     1
SBO2    0.13    73.95    2858.17     7018.26 110.00    313.60    110.00    110.00    110.00     1
;

param Pd    :
    1     2    3    4    5    6    7    8    9    10   11   12   13   14   15   16   17   18   19   20   21   22   23   24 :=
D03 27.4  18.8 19.0 16.3 15.0 17.3 22.3 41.9 53.7 57.2 61.4 64.8 68.5 70.5 65.1 61.0 58.0 55.3 49.9 54.5 67.3 61.5 45.2 29.9
D04  5.4   3.7  3.7  3.2  2.9  3.4  4.4  8.2 10.6 11.3 12.1 12.8 13.5 13.9 12.8 12.0 11.4 10.9  9.8 10.7 13.3 12.1  8.9  5.9
D05  2.2   1.5  1.5  1.3  1.2  1.4  1.8  3.4  4.4  4.7  5.0  5.3  5.6  5.8  5.4  5.0  4.8  4.5  4.1  4.5  5.5  5.1  3.7  2.4
D08  3.0   2.0  2.1  1.8  1.6  1.9  2.4  4.6  5.9  6.3  6.7  7.1  7.5  7.8  7.2  6.7  6.4  6.1  5.5  6.0  7.4  6.8  5.0  3.3
D09  24.1 16.5 16.7 14.4 13.2 15.2 19.7 36.9 47.3 50.4 54.1 57.1 60.4 62.1 57.4 53.8 51.1 48.8 44.0 48.1 59.3 54.2 39.9 26.3
D10  27.9 19.1 19.3 16.6 15.3 17.6 22.7 42.7 54.7 58.4 62.6 66.1 69.9 71.9 66.4 62.2 59.1 56.4 50.9 55.6 68.7 62.7 46.1 30.5
D11  27.9 19.1 19.3 16.6 15.3 17.6 22.7 42.7 54.7 58.4 62.6 66.1 69.9 71.9 66.4 62.2 59.1 56.4 50.9 55.6 68.7 62.7 46.1 30.5
D12  0.6   0.4  0.4  0.3  0.3  0.4  0.5  0.9  1.2  1.3  1.4  1.5  1.6  1.6  1.5  1.4  1.3  1.3  1.1  1.2  1.5  1.4  1.0  0.7
D13  1.1   0.8  0.8  0.7  0.6  0.7  0.9  1.8  2.3  2.4  2.6  2.8  2.9  3.0  2.8  2.6  2.5  2.4  2.1  2.3  2.9  2.6  1.9  1.3
D14  0.6   0.4  0.4  0.3  0.3  0.4  0.5  0.9  1.2  1.3  1.4  1.5  1.6  1.6  1.5  1.4  1.3  1.3  1.1  1.2  1.5  1.4  1.0  0.7
;

param: Bsusc        smax:=
1   2  1690.0       17
1   5  448.4        51
2   3  505.1        56
2   4  567.2        67
2   5  575.1        60
3   4  584.7        65
4   5  2374.7       37
4   7  478.2        88
4   9  179.8        49
5   6  396.8        84
6  11  502.8        70
6  12  390.9        4
6  13  767.6        11
7   8  567.7        8
7   9  909.0        80
9  10  1183.4       75
9  14  369.8        9
10 11  520.6        3
12 13  500.3        3
13 14  287.3        10
;

param refB := 1;

param TUini :=
    ALL1   2
;

